NAME : in_house_9_21
TYPE : TSP
DIMENSION : 9
EDGE_WEIGHT_TYPE : EXPLICIT
EDGE_WEIGHT_FORMAT : UPPER_ROW
COMMENT : INVERSION_SHIFT=3
EDGE_WEIGHT_SECTION
81
10
21
18
22
43
74
30
17
74
39
4
17
70
7
13
74
59
55
58
11
74
9
41
60
75
9
45
5
17
30
48
67
31
39
5
